NAME : local_4
TYPE : ATSP
DIMENSION : 5
EDGE_WEIGHT_TYPE : EXPLICIT
EDGE_WEIGHT_FORMAT : FULL_MATRIX
EDGE_WEIGHT_SECTION
0 598 376 10000000 571 
0 0 707 1135 722 
0 707 0 10000000 237 
0 1006 10000000 0 10000000 
0 10000000 10000000 10000000 0 
EOF